% seed = 8219511

mint = 32;
% maxt = 73;

nActs = 22;
dur = [0,5,2,1,1,7,2,4,3,5,5,7,4,2,4,6,1,1,7,1,5,0];

nSkills = 4;
sreq = [| 0,0,0,0,
	| 1,0,0,2,
	| 2,1,0,0,
	| 2,0,2,0,
	| 0,3,0,1,
	| 0,3,1,0,
	| 0,0,2,3,
	| 3,3,0,0,
	| 1,3,0,0,
	| 0,0,1,3,
	| 3,0,0,2,
	| 3,0,2,0,
	| 1,0,1,0,
	| 0,2,0,1,
	| 3,0,2,0,
	| 0,3,2,0,
	| 1,0,0,2,
	| 0,2,2,0,
	| 0,2,0,1,
	| 1,0,0,3,
	| 0,2,2,0,
	| 0,0,0,0, |];

nResources = 13;
mastery = [| false,true,false,true,
	| true,false,false,true,
	| true,false,false,false,
	| true,true,false,false,
	| true,true,false,true,
	| true,true,false,false,
	| false,false,true,false,
	| true,true,false,true,
	| false,true,true,true,
	| false,true,false,true,
	| false,true,false,true,
	| true,true,false,true,
	| true,true,false,true, |];

nPrecs = 37;
pred = [1,1,1,2,2,2,3,3,3,4,5,5,6,6,7,7,8,9,9,9,10,10,10,11,12,12,13,13,14,15,15,16,17,18,19,20,21];
succ = [2,3,4,10,13,6,5,15,7,18,11,20,11,21,9,8,10,17,10,12,19,20,16,16,20,13,19,14,16,17,18,18,21,21,22,22,22];

nUnrels = 95;
unpred = [2,2,2,2,2,2,2,2,2,3,3,4,4,4,4,4,4,4,4,4,4,4,4,4,4,4,5,5,5,5,5,5,5,5,5,5,5,6,6,6,6,6,6,6,6,6,6,6,7,7,8,8,8,8,8,8,8,9,9,10,10,10,10,10,10,11,11,11,11,11,11,11,12,12,13,13,13,14,14,14,14,15,15,15,16,16,16,17,17,17,18,18,19,19,20];
unsucc = [3,4,5,7,8,9,12,15,17,4,6,5,6,7,8,9,10,11,12,13,14,15,16,17,19,20,6,7,8,9,10,12,13,14,15,17,19,7,8,9,10,12,13,14,15,17,19,20,11,15,9,11,12,13,14,15,17,11,15,11,12,13,14,15,17,12,13,14,15,17,19,20,15,17,15,17,20,15,17,19,20,16,19,20,17,19,20,18,19,20,19,20,20,21,21];

USEFUL_RES = [{},
	{1,2,3,4,5,6,8,9,10,11,12,13},
	{1,2,3,4,5,6,8,9,10,11,12,13},
	{2,3,4,5,6,7,8,9,12,13},
	{1,2,4,5,6,8,9,10,11,12,13},
	{1,4,5,6,7,8,9,10,11,12,13},
	{1,2,5,7,8,9,10,11,12,13},
	{1,2,3,4,5,6,8,9,10,11,12,13},
	{1,2,3,4,5,6,8,9,10,11,12,13},
	{1,2,5,7,8,9,10,11,12,13},
	{1,2,3,4,5,6,8,9,10,11,12,13},
	{2,3,4,5,6,7,8,9,12,13},
	{2,3,4,5,6,7,8,9,12,13},
	{1,2,4,5,6,8,9,10,11,12,13},
	{2,3,4,5,6,7,8,9,12,13},
	{1,4,5,6,7,8,9,10,11,12,13},
	{1,2,3,4,5,6,8,9,10,11,12,13},
	{1,4,5,6,7,8,9,10,11,12,13},
	{1,2,4,5,6,8,9,10,11,12,13},
	{1,2,3,4,5,6,8,9,10,11,12,13},
	{1,4,5,6,7,8,9,10,11,12,13},
	{}];

POTENTIAL_ACT = [{2,3,5,6,7,8,9,10,11,14,16,17,18,19,20,21},
	{2,3,4,5,7,8,9,10,11,12,13,14,15,17,19,20},
	{2,3,4,8,9,11,12,13,15,17,20},
	{2,3,4,5,6,8,9,11,12,13,14,15,16,17,18,19,20,21},
	{2,3,4,5,6,7,8,9,10,11,12,13,14,15,16,17,18,19,20,21},
	{2,3,4,5,6,8,9,11,12,13,14,15,16,17,18,19,20,21},
	{4,6,7,10,12,13,15,16,18,21},
	{2,3,4,5,6,7,8,9,10,11,12,13,14,15,16,17,18,19,20,21},
	{2,3,4,5,6,7,8,9,10,11,12,13,14,15,16,17,18,19,20,21},
	{2,3,5,6,7,8,9,10,11,14,16,17,18,19,20,21},
	{2,3,5,6,7,8,9,10,11,14,16,17,18,19,20,21},
	{2,3,4,5,6,7,8,9,10,11,12,13,14,15,16,17,18,19,20,21},
	{2,3,4,5,6,7,8,9,10,11,12,13,14,15,16,17,18,19,20,21}];
